c "329365.clq"
p edge 100 1344
e 1 17
e 1 18
e 1 19
e 1 20
e 1 21
e 1 22
e 1 23
e 1 24
e 1 25
e 1 26
e 1 27
e 1 28
e 1 29
e 1 30
e 1 31
e 1 32
e 1 33
e 1 35
e 1 37
e 1 38
e 1 39
e 1 40
e 1 46
e 1 51
e 1 52
e 1 56
e 1 57
e 1 58
e 1 59
e 1 60
e 1 61
e 1 62
e 1 66
e 1 70
e 1 71
e 1 73
e 1 74
e 1 76
e 1 77
e 1 78
e 1 80
e 1 83
e 1 84
e 1 86
e 1 90
e 1 91
e 1 93
e 1 96
e 1 100
e 2 17
e 2 19
e 2 20
e 2 21
e 2 24
e 2 28
e 2 31
e 2 32
e 2 34
e 2 42
e 2 45
e 2 49
e 2 55
e 2 57
e 2 61
e 2 62
e 2 89
e 3 17
e 3 18
e 3 19
e 3 20
e 3 21
e 3 22
e 3 25
e 3 28
e 3 32
e 3 36
e 3 38
e 3 39
e 3 40
e 3 46
e 3 51
e 3 61
e 3 63
e 3 64
e 3 69
e 3 74
e 3 79
e 3 81
e 3 83
e 3 85
e 3 89
e 3 93
e 3 97
e 3 99
e 4 17
e 4 18
e 4 19
e 4 20
e 4 21
e 4 22
e 4 23
e 4 24
e 4 26
e 4 29
e 4 31
e 4 32
e 4 36
e 4 37
e 4 40
e 4 42
e 4 44
e 4 45
e 4 46
e 4 47
e 4 49
e 4 50
e 4 54
e 4 55
e 4 56
e 4 59
e 4 63
e 4 64
e 4 66
e 4 67
e 4 70
e 4 73
e 4 75
e 4 76
e 4 78
e 4 81
e 4 82
e 4 85
e 4 89
e 4 92
e 4 94
e 4 97
e 4 100
e 5 17
e 5 18
e 5 19
e 5 20
e 5 21
e 5 22
e 5 23
e 5 24
e 5 25
e 5 26
e 5 28
e 5 31
e 5 32
e 5 33
e 5 35
e 5 36
e 5 37
e 5 44
e 5 45
e 5 49
e 5 50
e 5 53
e 5 55
e 5 57
e 5 58
e 5 61
e 5 64
e 5 67
e 5 92
e 5 99
e 6 17
e 6 18
e 6 19
e 6 20
e 6 21
e 6 22
e 6 23
e 6 24
e 6 25
e 6 26
e 6 29
e 6 30
e 6 31
e 6 33
e 6 36
e 6 39
e 6 42
e 6 44
e 6 45
e 6 46
e 6 48
e 6 51
e 6 53
e 6 56
e 6 58
e 6 60
e 6 62
e 6 75
e 6 78
e 6 79
e 6 81
e 6 87
e 6 97
e 6 98
e 6 99
e 7 17
e 7 18
e 7 29
e 7 30
e 7 32
e 7 41
e 7 43
e 7 65
e 7 66
e 7 68
e 8 17
e 8 18
e 8 19
e 8 20
e 8 21
e 8 26
e 8 30
e 8 34
e 8 38
e 8 62
e 8 72
e 8 82
e 8 86
e 8 89
e 9 17
e 9 18
e 9 19
e 9 20
e 9 22
e 9 24
e 9 27
e 9 28
e 9 30
e 9 31
e 9 34
e 9 35
e 9 36
e 9 38
e 9 39
e 9 40
e 9 42
e 9 43
e 9 44
e 9 46
e 9 47
e 9 48
e 9 49
e 9 52
e 9 53
e 9 54
e 9 58
e 9 60
e 9 66
e 9 67
e 9 68
e 9 71
e 9 76
e 9 78
e 9 81
e 9 83
e 9 87
e 9 88
e 9 91
e 9 92
e 9 99
e 10 17
e 10 18
e 10 19
e 10 20
e 10 21
e 10 22
e 10 23
e 10 25
e 10 26
e 10 27
e 10 30
e 10 34
e 10 36
e 10 37
e 10 45
e 10 51
e 10 56
e 10 63
e 10 64
e 10 66
e 10 68
e 10 69
e 10 71
e 10 78
e 10 82
e 10 94
e 10 98
e 11 17
e 11 18
e 11 19
e 11 22
e 11 25
e 11 29
e 11 31
e 11 34
e 11 35
e 11 50
e 11 60
e 11 67
e 11 74
e 11 88
e 11 89
e 11 93
e 12 17
e 12 18
e 12 19
e 12 23
e 12 24
e 12 25
e 12 26
e 12 27
e 12 29
e 12 30
e 12 39
e 12 41
e 12 49
e 12 50
e 12 67
e 12 72
e 12 74
e 12 95
e 13 17
e 13 18
e 13 19
e 13 20
e 13 21
e 13 22
e 13 23
e 13 25
e 13 26
e 13 27
e 13 28
e 13 29
e 13 30
e 13 32
e 13 34
e 13 42
e 13 43
e 13 52
e 13 74
e 13 78
e 13 88
e 14 17
e 14 18
e 14 19
e 14 20
e 14 21
e 14 23
e 14 24
e 14 25
e 14 26
e 14 27
e 14 28
e 14 29
e 14 31
e 14 37
e 14 38
e 14 44
e 14 47
e 14 49
e 14 51
e 14 55
e 14 57
e 14 61
e 14 63
e 14 80
e 14 82
e 14 84
e 14 88
e 14 91
e 14 94
e 15 17
e 15 18
e 15 19
e 15 20
e 15 21
e 15 22
e 15 23
e 15 24
e 15 27
e 15 28
e 15 31
e 15 33
e 15 41
e 15 43
e 15 45
e 15 47
e 15 48
e 15 83
e 15 85
e 15 86
e 15 90
e 15 91
e 16 17
e 16 18
e 16 20
e 16 21
e 16 22
e 16 23
e 16 25
e 16 28
e 16 34
e 16 36
e 16 47
e 16 53
e 16 54
e 16 65
e 16 77
e 16 95
e 16 97
e 17 18
e 17 19
e 17 20
e 17 21
e 17 22
e 17 23
e 17 24
e 17 26
e 17 27
e 17 30
e 17 32
e 17 35
e 17 36
e 17 38
e 17 39
e 17 42
e 17 43
e 17 44
e 17 46
e 17 48
e 17 49
e 17 50
e 17 51
e 17 52
e 17 54
e 17 55
e 17 58
e 17 59
e 17 60
e 17 62
e 17 65
e 17 69
e 17 70
e 17 71
e 17 73
e 17 76
e 17 81
e 17 84
e 17 86
e 17 87
e 17 90
e 17 91
e 17 95
e 17 96
e 17 100
e 18 19
e 18 20
e 18 21
e 18 22
e 18 23
e 18 24
e 18 25
e 18 26
e 18 27
e 18 30
e 18 32
e 18 33
e 18 34
e 18 35
e 18 36
e 18 37
e 18 40
e 18 41
e 18 42
e 18 43
e 18 44
e 18 45
e 18 48
e 18 49
e 18 50
e 18 51
e 18 52
e 18 55
e 18 57
e 18 58
e 18 59
e 18 60
e 18 63
e 18 64
e 18 68
e 18 71
e 18 75
e 18 78
e 18 79
e 18 80
e 18 81
e 18 85
e 18 87
e 18 88
e 18 89
e 18 91
e 18 92
e 18 94
e 18 95
e 18 96
e 18 98
e 19 20
e 19 21
e 19 22
e 19 23
e 19 24
e 19 25
e 19 27
e 19 28
e 19 29
e 19 30
e 19 31
e 19 32
e 19 33
e 19 34
e 19 36
e 19 38
e 19 39
e 19 40
e 19 41
e 19 43
e 19 44
e 19 45
e 19 47
e 19 49
e 19 54
e 19 56
e 19 57
e 19 61
e 19 62
e 19 63
e 19 65
e 19 67
e 19 68
e 19 69
e 19 72
e 19 76
e 19 77
e 19 82
e 19 83
e 19 85
e 19 89
e 19 93
e 19 94
e 19 95
e 19 98
e 19 99
e 20 21
e 20 22
e 20 23
e 20 24
e 20 25
e 20 26
e 20 27
e 20 28
e 20 29
e 20 30
e 20 31
e 20 32
e 20 33
e 20 35
e 20 36
e 20 37
e 20 38
e 20 39
e 20 40
e 20 41
e 20 43
e 20 45
e 20 46
e 20 48
e 20 51
e 20 52
e 20 53
e 20 55
e 20 57
e 20 58
e 20 59
e 20 61
e 20 64
e 20 66
e 20 67
e 20 69
e 20 71
e 20 74
e 20 75
e 20 76
e 20 78
e 20 80
e 20 82
e 20 84
e 20 90
e 20 92
e 20 93
e 20 96
e 20 98
e 21 22
e 21 23
e 21 24
e 21 26
e 21 27
e 21 28
e 21 30
e 21 31
e 21 32
e 21 33
e 21 35
e 21 40
e 21 41
e 21 43
e 21 44
e 21 45
e 21 46
e 21 47
e 21 52
e 21 53
e 21 57
e 21 62
e 21 68
e 21 72
e 21 78
e 21 79
e 21 81
e 21 86
e 21 89
e 21 98
e 22 23
e 22 24
e 22 25
e 22 26
e 22 28
e 22 29
e 22 30
e 22 33
e 22 34
e 22 35
e 22 36
e 22 37
e 22 39
e 22 41
e 22 45
e 22 48
e 22 49
e 22 50
e 22 52
e 22 53
e 22 54
e 22 61
e 22 62
e 22 63
e 22 66
e 22 67
e 22 69
e 22 70
e 22 71
e 22 73
e 22 74
e 22 75
e 22 78
e 22 81
e 22 82
e 22 89
e 22 90
e 22 92
e 22 98
e 22 100
e 23 24
e 23 25
e 23 26
e 23 27
e 23 29
e 23 33
e 23 39
e 23 40
e 23 42
e 23 43
e 23 46
e 23 47
e 23 50
e 23 54
e 23 57
e 23 61
e 23 69
e 23 70
e 23 77
e 23 80
e 23 81
e 23 94
e 23 97
e 24 25
e 24 27
e 24 28
e 24 31
e 24 33
e 24 34
e 24 35
e 24 39
e 24 40
e 24 41
e 24 42
e 24 48
e 24 56
e 24 57
e 24 58
e 24 59
e 24 60
e 24 62
e 24 63
e 24 71
e 24 74
e 24 80
e 24 84
e 24 87
e 24 96
e 24 99
e 24 100
e 25 26
e 25 27
e 25 28
e 25 29
e 25 31
e 25 32
e 25 35
e 25 36
e 25 37
e 25 40
e 25 46
e 25 47
e 25 48
e 25 50
e 25 51
e 25 53
e 25 54
e 25 56
e 25 58
e 25 60
e 25 62
e 25 63
e 25 68
e 25 69
e 25 71
e 25 75
e 25 76
e 25 79
e 25 81
e 25 84
e 25 91
e 25 93
e 25 96
e 26 27
e 26 28
e 26 29
e 26 30
e 26 32
e 26 33
e 26 34
e 26 35
e 26 37
e 26 38
e 26 39
e 26 40
e 26 41
e 26 42
e 26 43
e 26 44
e 26 47
e 26 48
e 26 51
e 26 52
e 26 53
e 26 54
e 26 56
e 26 59
e 26 61
e 26 62
e 26 63
e 26 64
e 26 65
e 26 67
e 26 70
e 26 72
e 26 73
e 26 83
e 26 89
e 26 90
e 26 92
e 26 93
e 26 96
e 26 97
e 26 98
e 27 29
e 27 31
e 27 32
e 27 37
e 27 41
e 27 42
e 27 45
e 27 48
e 27 51
e 27 55
e 27 58
e 27 61
e 27 62
e 27 63
e 27 64
e 27 66
e 27 68
e 27 70
e 27 72
e 27 76
e 27 84
e 27 91
e 27 98
e 27 100
e 28 29
e 28 30
e 28 32
e 28 33
e 28 35
e 28 43
e 28 45
e 28 46
e 28 47
e 28 51
e 28 56
e 28 58
e 28 59
e 28 62
e 28 64
e 28 67
e 28 68
e 28 76
e 28 77
e 28 83
e 28 84
e 28 85
e 28 95
e 28 96
e 28 100
e 29 33
e 29 34
e 29 35
e 29 41
e 29 43
e 29 45
e 29 50
e 29 56
e 29 61
e 29 63
e 29 65
e 29 70
e 29 76
e 29 77
e 29 82
e 29 87
e 29 93
e 30 31
e 30 33
e 30 36
e 30 37
e 30 38
e 30 40
e 30 41
e 30 44
e 30 52
e 30 53
e 30 54
e 30 59
e 30 60
e 30 63
e 30 68
e 30 70
e 30 71
e 30 72
e 30 73
e 30 74
e 30 75
e 30 77
e 30 83
e 30 84
e 30 85
e 30 90
e 30 93
e 30 100
e 31 34
e 31 35
e 31 37
e 31 38
e 31 40
e 31 41
e 31 42
e 31 43
e 31 44
e 31 45
e 31 49
e 31 51
e 31 52
e 31 53
e 31 54
e 31 59
e 31 62
e 31 65
e 31 73
e 31 84
e 31 86
e 31 90
e 31 91
e 31 96
e 31 99
e 32 33
e 32 34
e 32 36
e 32 38
e 32 39
e 32 44
e 32 47
e 32 48
e 32 55
e 32 56
e 32 59
e 32 64
e 32 70
e 32 78
e 32 79
e 32 97
e 32 99
e 33 34
e 33 36
e 33 37
e 33 38
e 33 46
e 33 49
e 33 54
e 33 56
e 33 57
e 33 58
e 33 60
e 33 64
e 33 65
e 33 69
e 33 79
e 33 80
e 33 83
e 33 85
e 33 88
e 33 90
e 33 92
e 33 97
e 33 100
e 34 35
e 34 37
e 34 39
e 34 42
e 34 46
e 34 49
e 34 55
e 34 57
e 34 64
e 34 66
e 34 68
e 34 77
e 34 86
e 34 88
e 34 91
e 34 92
e 34 94
e 34 96
e 35 38
e 35 39
e 35 42
e 35 44
e 35 50
e 35 55
e 35 64
e 35 66
e 35 67
e 35 68
e 35 76
e 35 77
e 35 81
e 35 90
e 35 91
e 35 100
e 36 37
e 36 38
e 36 41
e 36 42
e 36 43
e 36 52
e 36 53
e 36 54
e 36 61
e 36 68
e 36 69
e 36 73
e 36 74
e 36 82
e 36 86
e 36 92
e 36 93
e 36 95
e 36 96
e 37 38
e 37 43
e 37 44
e 37 45
e 37 46
e 37 47
e 37 49
e 37 50
e 37 58
e 37 65
e 37 69
e 37 74
e 37 76
e 37 82
e 37 85
e 37 87
e 37 88
e 37 91
e 37 94
e 38 39
e 38 40
e 38 41
e 38 42
e 38 47
e 38 48
e 38 52
e 38 56
e 38 60
e 38 61
e 38 63
e 38 65
e 38 75
e 38 84
e 38 85
e 38 87
e 38 95
e 38 96
e 39 40
e 39 65
e 39 71
e 39 73
e 39 78
e 39 79
e 39 83
e 40 44
e 40 47
e 40 50
e 40 52
e 40 53
e 40 54
e 40 55
e 40 58
e 40 67
e 40 75
e 40 79
e 40 85
e 40 86
e 40 87
e 40 90
e 40 95
e 40 97
e 41 50
e 41 51
e 41 53
e 41 55
e 41 56
e 41 59
e 41 67
e 41 71
e 41 72
e 41 78
e 41 80
e 41 86
e 41 87
e 41 93
e 41 95
e 41 97
e 42 46
e 42 51
e 42 52
e 42 57
e 42 61
e 42 63
e 42 65
e 42 69
e 42 76
e 42 77
e 42 85
e 43 57
e 43 60
e 43 66
e 43 75
e 43 81
e 43 89
e 43 99
e 44 53
e 44 55
e 44 61
e 44 66
e 44 68
e 44 72
e 44 80
e 44 82
e 44 83
e 44 86
e 44 89
e 45 46
e 45 47
e 45 48
e 45 54
e 45 64
e 45 76
e 45 78
e 45 93
e 46 48
e 46 49
e 46 60
e 46 63
e 46 67
e 46 71
e 46 73
e 46 79
e 46 80
e 46 92
e 46 98
e 47 48
e 47 49
e 47 56
e 47 57
e 47 65
e 47 67
e 47 72
e 47 84
e 47 88
e 47 98
e 48 50
e 48 51
e 48 65
e 48 73
e 48 77
e 48 79
e 48 82
e 48 83
e 48 93
e 48 99
e 48 100
e 49 50
e 49 58
e 49 59
e 49 60
e 49 72
e 49 75
e 49 80
e 49 85
e 49 94
e 50 55
e 50 70
e 50 75
e 50 79
e 50 80
e 50 82
e 50 94
e 51 52
e 51 53
e 51 54
e 51 60
e 51 70
e 51 76
e 51 97
e 52 88
e 53 56
e 53 57
e 53 62
e 53 68
e 53 83
e 53 90
e 54 55
e 54 59
e 54 60
e 54 71
e 54 72
e 54 75
e 54 79
e 54 80
e 54 87
e 54 92
e 54 94
e 54 97
e 55 59
e 55 62
e 55 64
e 55 65
e 55 66
e 55 67
e 55 77
e 55 88
e 55 94
e 55 95
e 55 100
e 56 71
e 56 75
e 56 89
e 56 92
e 57 58
e 57 64
e 57 66
e 57 70
e 57 72
e 57 73
e 57 86
e 57 92
e 57 99
e 58 59
e 58 72
e 58 73
e 58 78
e 58 83
e 58 84
e 58 88
e 58 94
e 58 97
e 59 91
e 60 65
e 60 70
e 60 81
e 60 86
e 60 98
e 61 66
e 61 74
e 61 77
e 61 83
e 61 85
e 62 86
e 62 95
e 62 99
e 63 66
e 63 68
e 63 69
e 63 72
e 63 77
e 63 79
e 63 81
e 63 91
e 63 93
e 63 94
e 64 69
e 64 74
e 64 76
e 65 69
e 65 74
e 65 85
e 65 87
e 65 88
e 66 77
e 66 80
e 66 84
e 66 89
e 66 98
e 66 99
e 67 70
e 67 73
e 67 82
e 68 69
e 68 70
e 68 71
e 68 77
e 68 79
e 68 87
e 68 90
e 68 93
e 68 98
e 69 72
e 69 79
e 70 73
e 70 80
e 70 91
e 70 92
e 70 96
e 71 74
e 71 85
e 71 86
e 71 87
e 71 96
e 72 73
e 72 74
e 72 75
e 72 81
e 72 88
e 73 89
e 73 96
e 74 75
e 74 84
e 74 97
e 74 98
e 76 82
e 77 78
e 77 83
e 77 99
e 78 82
e 78 84
e 78 86
e 78 87
e 78 93
e 79 80
e 79 89
e 79 94
e 80 81
e 80 90
e 80 95
e 81 88
e 81 90
e 81 98
e 81 99
e 81 100
e 83 87
e 83 95
e 84 88
e 84 90
e 84 94
e 84 97
e 85 95
e 87 92
e 87 100
e 89 91
e 92 100
e 94 95
e 94 96
e 94 99
e 94 100
e 96 97
